
Gurobi 9.5.2 (win64) logging started Wed Jan 10 17:37:58 2024

Set parameter LogFile to value "./ccga_results/2024-01-10 17-37-43-091/FMP_TimeStampConvert_gurobi_log.txt"
Set parameter TimeLimit to value 7192

Gurobi 9.5.2 (win64) logging started Wed Jan 10 17:38:01 2024

Set parameter LogFile to value "./ccga_results/2024-01-10 17-37-43-091/FMP_TimeStampConvert_gurobi_log.txt"
Set parameter TimeLimit to value 7192
Gurobi Optimizer version 9.5.2 build v9.5.2rc0 (win64)
Thread count: 10 physical cores, 20 logical processors, using up to 20 threads
Optimize a model with 408 rows, 363 columns and 1994 nonzeros
Model fingerprint: 0x60037db4
Variable types: 355 continuous, 8 integer (8 binary)
Coefficient statistics:
  Matrix range     [9e-01, 1e+08]
  Objective range  [1e+00, 1e+00]
  Bounds range     [0e+00, 0e+00]
  RHS range        [1e+00, 1e+08]
Presolve removed 63 rows and 46 columns
Presolve time: 0.00s
Presolved: 345 rows, 317 columns, 1756 nonzeros
Variable types: 313 continuous, 4 integer (4 binary)
Found heuristic solution: objective 1.0000000

Root relaxation: objective 1.000000e+03, 95 iterations, 0.00 seconds (0.00 work units)

    Nodes    |    Current Node    |     Objective Bounds      |     Work
 Expl Unexpl |  Obj  Depth IntInf | Incumbent    BestBd   Gap | It/Node Time

     0     0 1000.00000    0    1    1.00000 1000.00000      -     -    0s
H    0     0                      92.6666667 1000.00000   979%     -    0s
     0     0 1000.00000    0    3   92.66667 1000.00000   979%     -    0s
H    0     0                     104.7810219 1000.00000   854%     -    0s
     0     0  321.66667    0    2  104.78102  321.66667   207%     -    0s
H    0     0                     105.3333333  321.66667   205%     -    0s
     0     0  250.00000    0    3  105.33333  250.00000   137%     -    0s
     0     0  243.24324    0    3  105.33333  243.24324   131%     -    0s
     0     0  243.24324    0    2  105.33333  243.24324   131%     -    0s
     0     0  243.24324    0    3  105.33333  243.24324   131%     -    0s
     0     0  222.22222    0    2  105.33333  222.22222   111%     -    0s
     0     0  200.00000    0    2  105.33333  200.00000  89.9%     -    0s
     0     0  200.00000    0    2  105.33333  200.00000  89.9%     -    0s
     0     2  200.00000    0    2  105.33333  200.00000  89.9%     -    0s
*   14     8               3     115.0000000  166.66667  44.9%  43.9    0s
*   15     0               4     118.2692308  166.66667  40.9%  47.5    0s

Cutting planes:
  MIR: 20
  Flow cover: 1
  RLT: 42
  Relax-and-lift: 2
  PSD: 1

Explored 23 nodes (1419 simplex iterations) in 0.06 seconds (0.06 work units)
Thread count was 20 (of 20 available processors)

Solution count 6: 118.269 115 105.333 ... 1

Optimal solution found (tolerance 5.00e-02)
Best objective 1.182692307692e+02, best bound 1.182692307692e+02, gap 0.0000%

User-callback calls 485, time in user-callback 0.00 sec

Gurobi 9.5.2 (win64) logging started Wed Jan 10 17:38:02 2024

Set parameter LogFile to value "./ccga_results/2024-01-10 17-37-43-091/FMP_TimeStampConvert_gurobi_log.txt"
Set parameter TimeLimit to value 7188

Gurobi 9.5.2 (win64) logging started Wed Jan 10 17:38:02 2024

Set parameter LogFile to value "./ccga_results/2024-01-10 17-37-43-091/FMP_TimeStampConvert_gurobi_log.txt"
Set parameter TimeLimit to value 7188
Gurobi Optimizer version 9.5.2 build v9.5.2rc0 (win64)
Thread count: 10 physical cores, 20 logical processors, using up to 20 threads
Optimize a model with 408 rows, 363 columns and 1944 nonzeros
Model fingerprint: 0xe2ec51d9
Variable types: 355 continuous, 8 integer (8 binary)
Coefficient statistics:
  Matrix range     [9e-01, 1e+08]
  Objective range  [1e+00, 1e+00]
  Bounds range     [0e+00, 0e+00]
  RHS range        [1e+00, 1e+08]
Presolve removed 91 rows and 80 columns
Presolve time: 0.00s
Presolved: 317 rows, 283 columns, 1536 nonzeros
Variable types: 279 continuous, 4 integer (4 binary)
Found heuristic solution: objective 1.0000000

Root relaxation: objective 1.000000e+03, 212 iterations, 0.00 seconds (0.00 work units)

    Nodes    |    Current Node    |     Objective Bounds      |     Work
 Expl Unexpl |  Obj  Depth IntInf | Incumbent    BestBd   Gap | It/Node Time

     0     0 1000.00000    0    1    1.00000 1000.00000      -     -    0s
H    0     0                     140.7692308 1000.00000   610%     -    0s
     0     0 1000.00000    0    1  140.76923 1000.00000   610%     -    0s
H    0     0                     147.4789916 1000.00000   578%     -    0s
     0     0  321.42857    0    1  147.47899  321.42857   118%     -    0s
     0     0  150.00000    0    2  147.47899  150.00000  1.71%     -    0s

Cutting planes:
  MIR: 11
  Flow cover: 3
  RLT: 8

Explored 1 nodes (297 simplex iterations) in 0.02 seconds (0.02 work units)
Thread count was 20 (of 20 available processors)

Solution count 3: 147.479 140.769 1 

Optimal solution found (tolerance 5.00e-02)
Best objective 1.474789915966e+02, best bound 1.500000000000e+02, gap 1.7094%

User-callback calls 391, time in user-callback 0.00 sec

Gurobi 9.5.2 (win64) logging started Wed Jan 10 17:38:03 2024

Set parameter LogFile to value "./ccga_results/2024-01-10 17-37-43-091/FMP_TimeStampConvert_gurobi_log.txt"
Set parameter TimeLimit to value 7187

Gurobi 9.5.2 (win64) logging started Wed Jan 10 17:38:03 2024

Set parameter LogFile to value "./ccga_results/2024-01-10 17-37-43-091/FMP_TimeStampConvert_gurobi_log.txt"
Set parameter TimeLimit to value 7187
Gurobi Optimizer version 9.5.2 build v9.5.2rc0 (win64)
Thread count: 10 physical cores, 20 logical processors, using up to 20 threads
Optimize a model with 408 rows, 363 columns and 1982 nonzeros
Model fingerprint: 0xc697aa92
Variable types: 355 continuous, 8 integer (8 binary)
Coefficient statistics:
  Matrix range     [9e-01, 1e+08]
  Objective range  [1e+00, 1e+00]
  Bounds range     [0e+00, 0e+00]
  RHS range        [1e+00, 1e+08]
Presolve removed 71 rows and 55 columns
Presolve time: 0.00s
Presolved: 337 rows, 308 columns, 1696 nonzeros
Variable types: 304 continuous, 4 integer (4 binary)
Found heuristic solution: objective 1.0000000

Root relaxation: objective 1.000000e+03, 89 iterations, 0.00 seconds (0.00 work units)

    Nodes    |    Current Node    |     Objective Bounds      |     Work
 Expl Unexpl |  Obj  Depth IntInf | Incumbent    BestBd   Gap | It/Node Time

     0     0 1000.00000    0    1    1.00000 1000.00000      -     -    0s
H    0     0                     129.2307692 1000.00000   674%     -    0s
     0     0  175.00000    0    2  129.23077  175.00000  35.4%     -    0s
     0     0  136.92308    0    2  129.23077  136.92308  5.95%     -    0s

Cutting planes:
  Implied bound: 2
  MIR: 16
  Flow cover: 2
  RLT: 12

Explored 1 nodes (223 simplex iterations) in 0.02 seconds (0.02 work units)
Thread count was 20 (of 20 available processors)

Solution count 2: 129.231 1 

Optimal solution found (tolerance 5.00e-02)
Best objective 1.292307692308e+02, best bound 1.330769230769e+02, gap 2.9762%

User-callback calls 385, time in user-callback 0.00 sec

Gurobi 9.5.2 (win64) logging started Wed Jan 10 17:38:03 2024

Set parameter LogFile to value "./ccga_results/2024-01-10 17-37-43-091/FMP_TimeStampConvert_gurobi_log.txt"
Set parameter TimeLimit to value 7187

Gurobi 9.5.2 (win64) logging started Wed Jan 10 17:38:03 2024

Set parameter LogFile to value "./ccga_results/2024-01-10 17-37-43-091/FMP_TimeStampConvert_gurobi_log.txt"
Set parameter TimeLimit to value 7187
Gurobi Optimizer version 9.5.2 build v9.5.2rc0 (win64)
Thread count: 10 physical cores, 20 logical processors, using up to 20 threads
Optimize a model with 408 rows, 363 columns and 2000 nonzeros
Model fingerprint: 0x4be09399
Variable types: 355 continuous, 8 integer (8 binary)
Coefficient statistics:
  Matrix range     [9e-01, 1e+08]
  Objective range  [1e+00, 1e+00]
  Bounds range     [0e+00, 0e+00]
  RHS range        [1e+00, 1e+08]
Presolve removed 59 rows and 40 columns
Presolve time: 0.00s
Presolved: 349 rows, 323 columns, 1792 nonzeros
Variable types: 319 continuous, 4 integer (4 binary)
Found heuristic solution: objective 1.0000000

Root relaxation: objective 1.700000e+02, 210 iterations, 0.00 seconds (0.00 work units)

    Nodes    |    Current Node    |     Objective Bounds      |     Work
 Expl Unexpl |  Obj  Depth IntInf | Incumbent    BestBd   Gap | It/Node Time

     0     0  170.00000    0    1    1.00000  170.00000      -     -    0s
     0     0  150.00000    0    1    1.00000  150.00000      -     -    0s
     0     0  100.00000    0    1    1.00000  100.00000  9900%     -    0s
     0     0   50.00000    0    1    1.00000   50.00000  4900%     -    0s
     0     0   34.00000    0    2    1.00000   34.00000  3300%     -    0s
     0     0   25.00000    0    4    1.00000   25.00000  2400%     -    0s
     0     0   16.26506    0    4    1.00000   16.26506  1527%     -    0s
     0     2   16.26506    0    4    1.00000   16.26506  1527%     -    0s

Cutting planes:
  MIR: 23
  Flow cover: 1
  RLT: 29

Explored 29 nodes (1197 simplex iterations) in 0.07 seconds (0.07 work units)
Thread count was 20 (of 20 available processors)

Solution count 1: 1 

Optimal solution found (tolerance 5.00e-02)
Best objective 1.000000000000e+00, best bound 1.000000000000e+00, gap 0.0000%

User-callback calls 478, time in user-callback 0.00 sec
Gurobi Optimizer version 9.5.2 build v9.5.2rc0 (win64)
Thread count: 10 physical cores, 20 logical processors, using up to 20 threads
Optimize a model with 816 rows, 717 columns and 3996 nonzeros
Model fingerprint: 0x69a8d6ec
Variable types: 709 continuous, 8 integer (8 binary)
Coefficient statistics:
  Matrix range     [9e-01, 1e+08]
  Objective range  [1e+00, 1e+00]
  Bounds range     [0e+00, 0e+00]
  RHS range        [1e+00, 1e+08]

MIP start from previous solve produced solution with objective -0 (0.01s)
Loaded MIP start from previous solve with objective -0

Presolve removed 116 rows and 77 columns
Presolve time: 0.00s
Presolved: 700 rows, 640 columns, 3586 nonzeros
Variable types: 636 continuous, 4 integer (4 binary)

Root relaxation: objective 1.700000e+02, 437 iterations, 0.01 seconds (0.01 work units)

    Nodes    |    Current Node    |     Objective Bounds      |     Work
 Expl Unexpl |  Obj  Depth IntInf | Incumbent    BestBd   Gap | It/Node Time

     0     0  170.00000    0    1   -0.00000  170.00000      -     -    0s
     0     0  150.00000    0    1   -0.00000  150.00000      -     -    0s
     0     0  100.00000    0    1   -0.00000  100.00000      -     -    0s
     0     0   50.00000    0    2   -0.00000   50.00000      -     -    0s
     0     0   50.00000    0    2   -0.00000   50.00000      -     -    0s
     0     0   34.00000    0    4   -0.00000   34.00000      -     -    0s
     0     0   25.00000    0    4   -0.00000   25.00000      -     -    0s
